84 225
15 5 
15 5 
15 5 
15 5 
15 21 
15 21 
15 21 
14 45 
14 45 
14 45 
14 37 
14 37 
14 37 
14 37 
14 37 
9 9 
9 9 
9 9 
9 9 
9 9 
63 15 
63 15 
63 15 
63 15 
63 15 
63 15 
63 15 
31 25 
31 25 
31 25 
19 18 
19 18 
19 18 
19 18 
19 18 
19 18 
25 17 
25 17 
25 17 
25 17 
25 17 
25 17 
25 17 
25 17 
25 18 
25 18 
25 18 
13 5 
13 5 
13 5 
13 5 
13 5 
13 5 
13 5 
18 12 
18 12 
18 12 
63 9 
63 9 
63 9 
63 9 
63 9 
16 19 
16 19 
16 19 
25 19 
25 19 
25 19 
25 19 
17 32 
17 32 
17 32 
35 14 
35 14 
35 14 
27 25 
27 25 
27 25 
12 19 
12 19 
12 19 
14 15 
14 15 
14 15 
